<?xml version = "1.0" encoding="UTF-8" standalone="yes"?>
<CPLEXSolution version="1.2">
 <header
   problemName="0_gamma__E_5_2_2"
   objectiveValue="0"
   solutionTypeValue="1"
   solutionTypeString="basic"
   solutionStatusValue="3"
   solutionStatusString="infeasible"
   solutionMethodString="dual"
   primalFeasible="0"
   dualFeasible="1"
   simplexIterations="2"
   writeLevel="1"/>
 <quality
   epRHS="9.9999999999999995e-07"
   epOpt="9.9999999999999995e-07"
   maxPrimalInfeas="2"
   maxDualInfeas="0"
   maxPrimalResidual="0"
   maxDualResidual="5.5511151231257827e-17"
   maxX="1"
   maxPi="0.20000000000000001"
   maxSlack="2"
   maxRedCost="0"
   kappa="142.53658536585365"/>
 <linearConstraints>
  <constraint name="R_def" index="0" status="BS" slack="0" dual="-0"/>
  <constraint name="val_cible_G" index="1" status="BS" slack="2" dual="0"/>
  <constraint name="BkI_3_0" index="2" status="BS" slack="0" dual="-0"/>
  <constraint name="BkI_3_1" index="3" status="LL" slack="0" dual="-0.20000000000000001"/>
  <constraint name="BkI_3_2" index="4" status="BS" slack="0" dual="-0"/>
  <constraint name="BkI_3_3" index="5" status="BS" slack="0" dual="-0"/>
  <constraint name="BkI_3_4" index="6" status="LL" slack="0" dual="0.20000000000000001"/>
  <constraint name="BkI_5_0" index="7" status="BS" slack="0" dual="-0"/>
  <constraint name="BkI_5_1" index="8" status="BS" slack="0" dual="-0"/>
  <constraint name="BkI_5_2" index="9" status="LL" slack="0" dual="0"/>
  <constraint name="BkI_5_3" index="10" status="LL" slack="0" dual="0"/>
  <constraint name="BkI_5_4" index="11" status="BS" slack="0" dual="-0"/>
  <constraint name="BkI_6_0" index="12" status="BS" slack="0" dual="-0"/>
  <constraint name="BkI_6_1" index="13" status="LL" slack="0" dual="-0.20000000000000001"/>
  <constraint name="BkI_6_2" index="14" status="BS" slack="0" dual="-0"/>
  <constraint name="BkI_6_3" index="15" status="BS" slack="0" dual="-0"/>
  <constraint name="BkI_6_4" index="16" status="LL" slack="0" dual="0.20000000000000001"/>
  <constraint name="BkI_9_0" index="17" status="BS" slack="0" dual="-0"/>
  <constraint name="BkI_9_1" index="18" status="BS" slack="0" dual="-0"/>
  <constraint name="BkI_9_2" index="19" status="LL" slack="0" dual="0"/>
  <constraint name="BkI_9_3" index="20" status="LL" slack="0" dual="-0"/>
  <constraint name="BkI_9_4" index="21" status="BS" slack="0" dual="-0"/>
  <constraint name="BkI_10_0" index="22" status="BS" slack="0" dual="-0"/>
  <constraint name="BkI_10_1" index="23" status="BS" slack="0" dual="-0"/>
  <constraint name="BkI_10_2" index="24" status="LL" slack="0" dual="0"/>
  <constraint name="BkI_10_3" index="25" status="LL" slack="0" dual="0"/>
  <constraint name="BkI_10_4" index="26" status="BS" slack="0" dual="-0"/>
  <constraint name="BkI_12_0" index="27" status="BS" slack="0" dual="-0"/>
  <constraint name="BkI_12_1" index="28" status="LL" slack="0" dual="-0.20000000000000001"/>
  <constraint name="BkI_12_2" index="29" status="BS" slack="0" dual="-0"/>
  <constraint name="BkI_12_3" index="30" status="BS" slack="0" dual="-0"/>
  <constraint name="BkI_12_4" index="31" status="LL" slack="0" dual="0.20000000000000001"/>
  <constraint name="BkI_17_0" index="32" status="BS" slack="0" dual="-0"/>
  <constraint name="BkI_17_1" index="33" status="LL" slack="0" dual="0.20000000000000001"/>
  <constraint name="BkI_17_2" index="34" status="BS" slack="0" dual="-0"/>
  <constraint name="BkI_17_3" index="35" status="BS" slack="0" dual="-0"/>
  <constraint name="BkI_17_4" index="36" status="LL" slack="0" dual="-0.20000000000000001"/>
  <constraint name="BkI_18_0" index="37" status="BS" slack="0" dual="-0"/>
  <constraint name="BkI_18_1" index="38" status="BS" slack="0" dual="-0"/>
  <constraint name="BkI_18_2" index="39" status="LL" slack="0" dual="0"/>
  <constraint name="BkI_18_3" index="40" status="LL" slack="0" dual="-0"/>
  <constraint name="BkI_18_4" index="41" status="BS" slack="0" dual="-0"/>
  <constraint name="BkI_20_0" index="42" status="BS" slack="0" dual="-0"/>
  <constraint name="BkI_20_1" index="43" status="BS" slack="0" dual="-0"/>
  <constraint name="BkI_20_2" index="44" status="LL" slack="0" dual="0"/>
  <constraint name="BkI_20_3" index="45" status="BS" slack="0" dual="-0"/>
  <constraint name="BkI_20_4" index="46" status="BS" slack="0" dual="-0"/>
  <constraint name="BkI_24_0" index="47" status="BS" slack="0" dual="-0"/>
  <constraint name="BkI_24_1" index="48" status="LL" slack="0" dual="-0.20000000000000001"/>
  <constraint name="BkI_24_2" index="49" status="BS" slack="0" dual="-0"/>
  <constraint name="BkI_24_3" index="50" status="BS" slack="0" dual="-0"/>
  <constraint name="BkI_24_4" index="51" status="LL" slack="0" dual="0.20000000000000001"/>
 </linearConstraints>
 <variables>
  <variable name="R" index="0" status="LL" value="1" reducedCost="-0"/>
  <variable name="Q01234" index="1" status="BS" value="0" reducedCost="0"/>
  <variable name="Q00000" index="2" status="UL" value="1" reducedCost="0"/>
  <variable name="P00000" index="3" status="UL" value="1" reducedCost="0"/>
  <variable name="Q00001" index="4" status="LL" value="0" reducedCost="-0"/>
  <variable name="P00001" index="5" status="LL" value="0" reducedCost="-0"/>
  <variable name="Q00002" index="6" status="LL" value="0" reducedCost="0"/>
  <variable name="P00002" index="7" status="LL" value="0" reducedCost="0"/>
  <variable name="Q00003" index="8" status="LL" value="0" reducedCost="0"/>
  <variable name="P00003" index="9" status="LL" value="0" reducedCost="0"/>
  <variable name="Q00004" index="10" status="LL" value="0" reducedCost="-0"/>
  <variable name="P00004" index="11" status="LL" value="0" reducedCost="-0"/>
  <variable name="Q00010" index="12" status="BS" value="0" reducedCost="0"/>
  <variable name="P00010" index="13" status="LL" value="0" reducedCost="-0"/>
  <variable name="Q00011" index="14" status="BS" value="0" reducedCost="0"/>
  <variable name="P00011" index="15" status="LL" value="0" reducedCost="-0"/>
  <variable name="Q00020" index="16" status="BS" value="0" reducedCost="0"/>
  <variable name="P00020" index="17" status="LL" value="0" reducedCost="0"/>
  <variable name="Q00022" index="18" status="BS" value="0" reducedCost="0"/>
  <variable name="P00022" index="19" status="LL" value="0" reducedCost="0"/>
  <variable name="Q00030" index="20" status="LL" value="0" reducedCost="0"/>
  <variable name="P00030" index="21" status="LL" value="0" reducedCost="0"/>
  <variable name="Q00033" index="22" status="LL" value="0" reducedCost="0"/>
  <variable name="P00033" index="23" status="LL" value="0" reducedCost="0"/>
  <variable name="Q00040" index="24" status="LL" value="0" reducedCost="-0"/>
  <variable name="P00040" index="25" status="LL" value="0" reducedCost="-0"/>
  <variable name="Q00044" index="26" status="BS" value="0" reducedCost="0"/>
  <variable name="P00044" index="27" status="LL" value="0" reducedCost="-0"/>
  <variable name="Q00100" index="28" status="BS" value="0" reducedCost="0"/>
  <variable name="P00100" index="29" status="LL" value="0" reducedCost="-0"/>
  <variable name="Q00101" index="30" status="LL" value="0" reducedCost="-0"/>
  <variable name="P00101" index="31" status="LL" value="0" reducedCost="-0"/>
  <variable name="Q00110" index="32" status="LL" value="0" reducedCost="-0"/>
  <variable name="P00110" index="33" status="LL" value="0" reducedCost="-0"/>
  <variable name="Q00111" index="34" status="LL" value="0" reducedCost="-0"/>
  <variable name="P00111" index="35" status="LL" value="0" reducedCost="-0"/>
  <variable name="Q00200" index="36" status="BS" value="0" reducedCost="0"/>
  <variable name="P00200" index="37" status="LL" value="0" reducedCost="0"/>
  <variable name="Q00202" index="38" status="LL" value="0" reducedCost="0"/>
  <variable name="P00202" index="39" status="LL" value="0" reducedCost="0"/>
  <variable name="Q00220" index="40" status="LL" value="0" reducedCost="0"/>
  <variable name="P00220" index="41" status="LL" value="0" reducedCost="0"/>
  <variable name="Q00222" index="42" status="LL" value="0" reducedCost="0"/>
  <variable name="P00222" index="43" status="LL" value="0" reducedCost="0"/>
  <variable name="Q00300" index="44" status="BS" value="0" reducedCost="0"/>
  <variable name="P00300" index="45" status="LL" value="0" reducedCost="0"/>
  <variable name="Q00303" index="46" status="LL" value="0" reducedCost="0"/>
  <variable name="P00303" index="47" status="LL" value="0" reducedCost="0"/>
  <variable name="Q00330" index="48" status="LL" value="0" reducedCost="0"/>
  <variable name="P00330" index="49" status="LL" value="0" reducedCost="0"/>
  <variable name="Q00333" index="50" status="LL" value="0" reducedCost="0"/>
  <variable name="P00333" index="51" status="LL" value="0" reducedCost="0"/>
  <variable name="Q00400" index="52" status="LL" value="0" reducedCost="-0"/>
  <variable name="P00400" index="53" status="LL" value="0" reducedCost="-0"/>
  <variable name="Q00404" index="54" status="BS" value="0" reducedCost="0"/>
  <variable name="P00404" index="55" status="LL" value="0" reducedCost="-0"/>
  <variable name="Q00440" index="56" status="LL" value="0" reducedCost="-0"/>
  <variable name="P00440" index="57" status="LL" value="0" reducedCost="-0"/>
  <variable name="Q00444" index="58" status="LL" value="0" reducedCost="-0"/>
  <variable name="P00444" index="59" status="LL" value="0" reducedCost="-0"/>
  <variable name="Q01000" index="60" status="LL" value="0" reducedCost="-0"/>
  <variable name="P01000" index="61" status="LL" value="0" reducedCost="-0"/>
  <variable name="Q01001" index="62" status="LL" value="0" reducedCost="-0"/>
  <variable name="P01001" index="63" status="LL" value="0" reducedCost="-0"/>
  <variable name="Q01010" index="64" status="LL" value="0" reducedCost="-0"/>
  <variable name="P01010" index="65" status="LL" value="0" reducedCost="-0"/>
  <variable name="Q01011" index="66" status="LL" value="0" reducedCost="-0"/>
  <variable name="P01011" index="67" status="BS" value="0" reducedCost="0"/>
  <variable name="Q01100" index="68" status="LL" value="0" reducedCost="-0"/>
  <variable name="P01100" index="69" status="LL" value="0" reducedCost="-0"/>
  <variable name="Q01101" index="70" status="LL" value="0" reducedCost="-0"/>
  <variable name="P01101" index="71" status="LL" value="0" reducedCost="-0"/>
  <variable name="Q01110" index="72" status="LL" value="0" reducedCost="-0"/>
  <variable name="P01110" index="73" status="LL" value="0" reducedCost="-0"/>
  <variable name="Q01111" index="74" status="BS" value="0" reducedCost="0"/>
  <variable name="P01111" index="75" status="LL" value="0" reducedCost="-0"/>
  <variable name="Q02000" index="76" status="LL" value="0" reducedCost="0"/>
  <variable name="P02000" index="77" status="LL" value="0" reducedCost="0"/>
  <variable name="Q02002" index="78" status="LL" value="0" reducedCost="0"/>
  <variable name="P02002" index="79" status="LL" value="0" reducedCost="0"/>
  <variable name="Q02020" index="80" status="LL" value="0" reducedCost="0"/>
  <variable name="P02020" index="81" status="LL" value="0" reducedCost="0"/>
  <variable name="Q02022" index="82" status="LL" value="0" reducedCost="0"/>
  <variable name="P02022" index="83" status="LL" value="0" reducedCost="0"/>
  <variable name="Q02200" index="84" status="LL" value="0" reducedCost="0"/>
  <variable name="P02200" index="85" status="BS" value="0" reducedCost="0"/>
  <variable name="Q02202" index="86" status="BS" value="0" reducedCost="0"/>
  <variable name="P02202" index="87" status="LL" value="0" reducedCost="0"/>
  <variable name="Q02220" index="88" status="BS" value="0" reducedCost="0"/>
  <variable name="P02220" index="89" status="LL" value="0" reducedCost="0"/>
  <variable name="Q02222" index="90" status="LL" value="0" reducedCost="0"/>
  <variable name="P02222" index="91" status="LL" value="0" reducedCost="0"/>
  <variable name="Q03000" index="92" status="LL" value="0" reducedCost="0"/>
  <variable name="P03000" index="93" status="LL" value="0" reducedCost="0"/>
  <variable name="Q03003" index="94" status="LL" value="0" reducedCost="0"/>
  <variable name="P03003" index="95" status="LL" value="0" reducedCost="0"/>
  <variable name="Q03030" index="96" status="LL" value="0" reducedCost="0"/>
  <variable name="P03030" index="97" status="LL" value="0" reducedCost="0"/>
  <variable name="Q03033" index="98" status="LL" value="0" reducedCost="0"/>
  <variable name="P03033" index="99" status="BS" value="0" reducedCost="0"/>
  <variable name="Q03300" index="100" status="BS" value="0" reducedCost="0"/>
  <variable name="P03300" index="101" status="LL" value="0" reducedCost="0"/>
  <variable name="Q03303" index="102" status="LL" value="0" reducedCost="0"/>
  <variable name="P03303" index="103" status="LL" value="0" reducedCost="0"/>
  <variable name="Q03330" index="104" status="LL" value="0" reducedCost="0"/>
  <variable name="P03330" index="105" status="LL" value="0" reducedCost="0"/>
  <variable name="Q03333" index="106" status="LL" value="0" reducedCost="0"/>
  <variable name="P03333" index="107" status="LL" value="0" reducedCost="0"/>
  <variable name="Q04000" index="108" status="LL" value="0" reducedCost="-0"/>
  <variable name="P04000" index="109" status="LL" value="0" reducedCost="-0"/>
  <variable name="Q04004" index="110" status="BS" value="0" reducedCost="0"/>
  <variable name="P04004" index="111" status="LL" value="0" reducedCost="-0"/>
  <variable name="Q04040" index="112" status="LL" value="0" reducedCost="-0"/>
  <variable name="P04040" index="113" status="LL" value="0" reducedCost="-0"/>
  <variable name="Q04044" index="114" status="LL" value="0" reducedCost="-0"/>
  <variable name="P04044" index="115" status="LL" value="0" reducedCost="-0"/>
  <variable name="Q04400" index="116" status="LL" value="0" reducedCost="-0"/>
  <variable name="P04400" index="117" status="LL" value="0" reducedCost="-0"/>
  <variable name="Q04404" index="118" status="LL" value="0" reducedCost="-0"/>
  <variable name="P04404" index="119" status="LL" value="0" reducedCost="-0"/>
  <variable name="Q04440" index="120" status="LL" value="0" reducedCost="-0"/>
  <variable name="P04440" index="121" status="BS" value="0" reducedCost="0"/>
  <variable name="Q04444" index="122" status="LL" value="0" reducedCost="-0"/>
  <variable name="P04444" index="123" status="LL" value="0" reducedCost="-0"/>
 </variables>
 <objectiveValues>
  <objective index="0" name="" value="0"/>
 </objectiveValues>
</CPLEXSolution>
